(declare-fun e () String)
(declare-fun g () String)
(declare-fun d () String)
(declare-fun f () String)
(declare-fun a () String)
(declare-fun h () String)
(assert (= "g" (str.++ f "f" a a)))
(assert (= (str.++ "h" g) (str.++ "f" f "f")))
(assert (= (str.++ "c" h "ch" d) (str.++ "a" e "dh" g "g")))

(check-sat)
